letting n =  10
letting blocks =  [[1, 2], [1, 3], [1, 4], [1, 10], [2, 10], [3, 5], [3, 7], [4, 7], [4, 8], [5, 2], [5, 10], [6, 2], [6, 9], [7, 1], [7, 5], [7, 9], [8, 1], [8, 2], [8, 3], [8, 5], [8, 6], [9, 1], [9, 2], [9, 5], [9, 6], [9, 8], [10, 5], [10, 8]]
